(set-logic QF_LIA)
(declare-fun x0 () Int)
(declare-fun x1 () Int)
(declare-fun x2 () Int)
(declare-fun x3 () Int)
(declare-fun x4 () Int)
(declare-fun x5 () Int)
(declare-fun x6 () Int)
(declare-fun x7 () Int)
(declare-fun x8 () Int)
(declare-fun x9 () Int)
(declare-fun A0 () Bool)
(declare-fun A1 () Bool)
(declare-fun A2 () Bool)
(declare-fun A3 () Bool)
(declare-fun A4 () Bool)
(declare-fun A5 () Bool)
(declare-fun A6 () Bool)
(declare-fun A7 () Bool)
(declare-fun A8 () Bool)
(declare-fun A9 () Bool)
(assert (let ((.def_0 (not A0))) (let ((.def_1 (not A9))) (let ((.def_2 (or .def_1 .def_0))) (let ((.def_3 (* (- 1) x6))) (let ((.def_4 (< .def_3 1))) (let ((.def_5 (and .def_4 A8))) (let ((.def_6 (not .def_5))) (let ((.def_7 (and .def_6 .def_2))) (let ((.def_8 (not .def_7))) (let ((.def_9 (not A4))) (let ((.def_10 (* 1 x3))) (let ((.def_11 (* (- 1) x7))) (let ((.def_12 (+ .def_11 .def_10))) (let ((.def_13 (< .def_12 1))) (let ((.def_14 (not .def_13))) (let ((.def_15 (and .def_14 .def_9))) (let ((.def_16 (not .def_15))) (let ((.def_17 (not A8))) (let ((.def_18 (* 1 x9))) (let ((.def_19 (< .def_18 1))) (let ((.def_20 (and .def_19 .def_17))) (let ((.def_21 (not .def_20))) (let ((.def_22 (or .def_21 .def_16))) (let ((.def_23 (not .def_22))) (let ((.def_24 (or .def_23 .def_8))) (let ((.def_25 (* (- 1) x9))) (let ((.def_26 (< .def_25 1))) (let ((.def_27 (or .def_26 A0))) (let ((.def_28 (or A6 A6))) (let ((.def_29 (not .def_28))) (let ((.def_30 (and .def_29 .def_27))) (let ((.def_31 (* 1 x4))) (let ((.def_32 (* (- 1) x0))) (let ((.def_33 (+ .def_32 .def_31))) (let ((.def_34 (< .def_33 (- 1)))) (let ((.def_35 (not .def_34))) (let ((.def_36 (< .def_11 (- 1)))) (let ((.def_37 (and .def_36 .def_35))) (let ((.def_38 (not A2))) (let ((.def_39 (or A2 .def_38))) (let ((.def_40 (not .def_39))) (let ((.def_41 (and .def_40 .def_37))) (let ((.def_42 (and .def_41 .def_30))) (let ((.def_43 (not .def_42))) (let ((.def_44 (or .def_43 .def_24))) (let ((.def_45 (not .def_44))) (let ((.def_46 (* (- 1) x4))) (let ((.def_47 (+ .def_46 .def_3))) (let ((.def_48 (< .def_47 (- 1)))) (let ((.def_49 (* (- 1) x2))) (let ((.def_50 (+ .def_25 .def_49))) (let ((.def_51 (< .def_50 (- 1)))) (let ((.def_52 (or .def_51 .def_48))) (let ((.def_53 (not .def_52))) (let ((.def_54 (* 1 x1))) (let ((.def_55 (< .def_54 (- 1)))) (let ((.def_56 (or A9 .def_55))) (let ((.def_57 (not .def_56))) (let ((.def_58 (or .def_57 .def_53))) (let ((.def_59 (or A1 A6))) (let ((.def_60 (not .def_59))) (let ((.def_61 (* (- 1) x5))) (let ((.def_62 (+ .def_49 .def_61))) (let ((.def_63 (< .def_62 (- 1)))) (let ((.def_64 (* (- 1) x3))) (let ((.def_65 (+ .def_3 .def_64))) (let ((.def_66 (< .def_65 (- 1)))) (let ((.def_67 (and .def_66 .def_63))) (let ((.def_68 (not .def_67))) (let ((.def_69 (= .def_68 .def_60))) (let ((.def_70 (and .def_69 .def_58))) (let ((.def_71 (not .def_70))) (let ((.def_72 (* 1 x7))) (let ((.def_73 (< .def_72 (- 1)))) (let ((.def_74 (or .def_73 A6))) (let ((.def_75 (not .def_74))) (let ((.def_76 (* 1 x2))) (let ((.def_77 (+ .def_76 .def_72))) (let ((.def_78 (< .def_77 1))) (let ((.def_79 (not .def_78))) (let ((.def_80 (or .def_79 A3))) (let ((.def_81 (not .def_80))) (let ((.def_82 (or .def_81 .def_75))) (let ((.def_83 (not A6))) (let ((.def_84 (and .def_83 A9))) (let ((.def_85 (not .def_84))) (let ((.def_86 (* 1 x6))) (let ((.def_87 (* 1 x8))) (let ((.def_88 (+ .def_87 .def_86))) (let ((.def_89 (< .def_88 (- 1)))) (let ((.def_90 (not .def_89))) (let ((.def_91 (and .def_90 .def_17))) (let ((.def_92 (or .def_91 .def_85))) (let ((.def_93 (or .def_92 .def_82))) (let ((.def_94 (not .def_93))) (let ((.def_95 (and .def_94 .def_71))) (let ((.def_96 (not .def_95))) (let ((.def_97 (or .def_96 .def_45))) (let ((.def_98 (not .def_97))) (let ((.def_99 (not A3))) (let ((.def_100 (and .def_38 .def_99))) (let ((.def_101 (+ .def_11 .def_76))) (let ((.def_102 (< .def_101 (- 1)))) (let ((.def_103 (not .def_102))) (let ((.def_104 (= A8 .def_103))) (let ((.def_105 (or .def_104 .def_100))) (let ((.def_106 (* 1 x5))) (let ((.def_107 (+ .def_86 .def_106))) (let ((.def_108 (< .def_107 (- 1)))) (let ((.def_109 (or .def_108 A4))) (let ((.def_110 (+ .def_72 .def_46))) (let ((.def_111 (< .def_110 1))) (let ((.def_112 (+ .def_32 .def_64))) (let ((.def_113 (< .def_112 (- 1)))) (let ((.def_114 (not .def_113))) (let ((.def_115 (and .def_114 .def_111))) (let ((.def_116 (not .def_115))) (let ((.def_117 (= .def_116 .def_109))) (let ((.def_118 (not .def_117))) (let ((.def_119 (or .def_118 .def_105))) (let ((.def_120 (not .def_119))) (let ((.def_121 (not A7))) (let ((.def_122 (* (- 1) x1))) (let ((.def_123 (< .def_122 1))) (let ((.def_124 (and .def_123 .def_121))) (let ((.def_125 (and .def_83 A7))) (let ((.def_126 (not .def_125))) (let ((.def_127 (or .def_126 .def_124))) (let ((.def_128 (< .def_46 (- 1)))) (let ((.def_129 (or .def_128 .def_0))) (let ((.def_130 (not .def_129))) (let ((.def_131 (and A7 A2))) (let ((.def_132 (or .def_131 .def_130))) (let ((.def_133 (or .def_132 .def_127))) (let ((.def_134 (or .def_133 .def_120))) (let ((.def_135 (< .def_122 (- 1)))) (let ((.def_136 (< .def_106 1))) (let ((.def_137 (and .def_136 .def_135))) (let ((.def_138 (not .def_137))) (let ((.def_139 (+ .def_86 .def_49))) (let ((.def_140 (< .def_139 1))) (let ((.def_141 (not .def_140))) (let ((.def_142 (or .def_141 .def_55))) (let ((.def_143 (not .def_142))) (let ((.def_144 (and .def_143 .def_138))) (let ((.def_145 (< .def_31 1))) (let ((.def_146 (+ .def_49 .def_106))) (let ((.def_147 (< .def_146 (- 1)))) (let ((.def_148 (and .def_147 .def_145))) (let ((.def_149 (not .def_148))) (let ((.def_150 (< .def_32 1))) (let ((.def_151 (< .def_32 (- 1)))) (let ((.def_152 (and .def_151 .def_150))) (let ((.def_153 (not .def_152))) (let ((.def_154 (and .def_153 .def_149))) (let ((.def_155 (= .def_154 .def_144))) (let ((.def_156 (not .def_155))) (let ((.def_157 (or .def_99 A9))) (let ((.def_158 (or .def_1 A5))) (let ((.def_159 (or .def_158 .def_157))) (let ((.def_160 (= .def_9 A0))) (let ((.def_161 (not .def_160))) (let ((.def_162 (+ .def_3 .def_122))) (let ((.def_163 (< .def_162 (- 1)))) (let ((.def_164 (not .def_163))) (let ((.def_165 (or .def_164 .def_38))) (let ((.def_166 (not .def_165))) (let ((.def_167 (and .def_166 .def_161))) (let ((.def_168 (not .def_167))) (let ((.def_169 (or .def_168 .def_159))) (let ((.def_170 (not .def_169))) (let ((.def_171 (and .def_170 .def_156))) (let ((.def_172 (not .def_171))) (let ((.def_173 (= .def_172 .def_134))) (let ((.def_174 (not .def_173))) (let ((.def_175 (and .def_174 .def_98))) (let ((.def_176 (+ .def_3 .def_32))) (let ((.def_177 (< .def_176 (- 1)))) (let ((.def_178 (and .def_177 A8))) (let ((.def_179 (not .def_178))) (let ((.def_180 (< .def_54 1))) (let ((.def_181 (or .def_180 .def_0))) (let ((.def_182 (not .def_181))) (let ((.def_183 (or .def_182 .def_179))) (let ((.def_184 (and A7 .def_99))) (let ((.def_185 (not .def_184))) (let ((.def_186 (or .def_83 .def_73))) (let ((.def_187 (or .def_186 .def_185))) (let ((.def_188 (or .def_187 .def_183))) (let ((.def_189 (not .def_188))) (let ((.def_190 (< .def_10 (- 1)))) (let ((.def_191 (not .def_190))) (let ((.def_192 (< .def_110 (- 1)))) (let ((.def_193 (not .def_192))) (let ((.def_194 (= .def_193 .def_191))) (let ((.def_195 (not .def_194))) (let ((.def_196 (+ .def_3 .def_54))) (let ((.def_197 (< .def_196 1))) (let ((.def_198 (not .def_197))) (let ((.def_199 (< .def_64 (- 1)))) (let ((.def_200 (and .def_199 .def_198))) (let ((.def_201 (and .def_200 .def_195))) (let ((.def_202 (not .def_201))) (let ((.def_203 (and .def_17 A7))) (let ((.def_204 (+ .def_18 .def_122))) (let ((.def_205 (< .def_204 1))) (let ((.def_206 (not .def_205))) (let ((.def_207 (and .def_206 .def_4))) (let ((.def_208 (or .def_207 .def_203))) (let ((.def_209 (not .def_208))) (let ((.def_210 (or .def_209 .def_202))) (let ((.def_211 (not .def_210))) (let ((.def_212 (or .def_211 .def_189))) (let ((.def_213 (not .def_212))) (let ((.def_214 (< .def_10 1))) (let ((.def_215 (or .def_214 .def_121))) (let ((.def_216 (+ .def_11 .def_49))) (let ((.def_217 (< .def_216 1))) (let ((.def_218 (not .def_217))) (let ((.def_219 (and A4 .def_218))) (let ((.def_220 (or .def_219 .def_215))) (let ((.def_221 (+ .def_25 .def_72))) (let ((.def_222 (< .def_221 1))) (let ((.def_223 (+ .def_87 .def_64))) (let ((.def_224 (< .def_223 1))) (let ((.def_225 (or .def_224 .def_222))) (let ((.def_226 (< .def_76 (- 1)))) (let ((.def_227 (or A3 .def_226))) (let ((.def_228 (or .def_227 .def_225))) (let ((.def_229 (not .def_228))) (let ((.def_230 (= .def_229 .def_220))) (let ((.def_231 (not .def_230))) (let ((.def_232 (or .def_1 .def_99))) (let ((.def_233 (not .def_232))) (let ((.def_234 (+ .def_10 .def_87))) (let ((.def_235 (< .def_234 1))) (let ((.def_236 (not .def_235))) (let ((.def_237 (or .def_83 .def_236))) (let ((.def_238 (or .def_237 .def_233))) (let ((.def_239 (not .def_238))) (let ((.def_240 (+ .def_46 .def_49))) (let ((.def_241 (< .def_240 1))) (let ((.def_242 (and .def_241 A8))) (let ((.def_243 (not .def_242))) (let ((.def_244 (< .def_31 (- 1)))) (let ((.def_245 (not .def_244))) (let ((.def_246 (+ .def_32 .def_86))) (let ((.def_247 (< .def_246 (- 1)))) (let ((.def_248 (not .def_247))) (let ((.def_249 (or .def_248 .def_245))) (let ((.def_250 (and .def_249 .def_243))) (let ((.def_251 (or .def_250 .def_239))) (let ((.def_252 (not .def_251))) (let ((.def_253 (and .def_252 .def_231))) (let ((.def_254 (not .def_253))) (let ((.def_255 (or .def_254 .def_213))) (let ((.def_256 (not .def_255))) (let ((.def_257 (not .def_180))) (let ((.def_258 (+ .def_54 .def_31))) (let ((.def_259 (< .def_258 1))) (let ((.def_260 (not .def_259))) (let ((.def_261 (= .def_260 .def_257))) (let ((.def_262 (+ .def_76 .def_46))) (let ((.def_263 (< .def_262 1))) (let ((.def_264 (+ .def_122 .def_10))) (let ((.def_265 (< .def_264 (- 1)))) (let ((.def_266 (and .def_265 .def_263))) (let ((.def_267 (not .def_266))) (let ((.def_268 (and .def_267 .def_261))) (let ((.def_269 (* 1 x0))) (let ((.def_270 (+ .def_269 .def_18))) (let ((.def_271 (< .def_270 (- 1)))) (let ((.def_272 (or .def_38 .def_271))) (let ((.def_273 (+ .def_49 .def_72))) (let ((.def_274 (< .def_273 (- 1)))) (let ((.def_275 (not .def_274))) (let ((.def_276 (and .def_275 A3))) (let ((.def_277 (or .def_276 .def_272))) (let ((.def_278 (or .def_277 .def_268))) (let ((.def_279 (not .def_278))) (let ((.def_280 (= .def_128 .def_260))) (let ((.def_281 (not .def_280))) (let ((.def_282 (+ .def_106 .def_11))) (let ((.def_283 (< .def_282 (- 1)))) (let ((.def_284 (or A7 .def_283))) (let ((.def_285 (and .def_284 .def_281))) (let ((.def_286 (not .def_285))) (let ((.def_287 (* (- 1) x8))) (let ((.def_288 (+ .def_287 .def_11))) (let ((.def_289 (< .def_288 1))) (let ((.def_290 (and .def_99 .def_289))) (let ((.def_291 (not .def_290))) (let ((.def_292 (+ .def_76 .def_3))) (let ((.def_293 (< .def_292 (- 1)))) (let ((.def_294 (not .def_293))) (let ((.def_295 (< .def_106 (- 1)))) (let ((.def_296 (not .def_295))) (let ((.def_297 (or .def_296 .def_294))) (let ((.def_298 (or .def_297 .def_291))) (let ((.def_299 (or .def_298 .def_286))) (let ((.def_300 (not .def_299))) (let ((.def_301 (or .def_300 .def_279))) (let ((.def_302 (not .def_301))) (let ((.def_303 (+ .def_87 .def_32))) (let ((.def_304 (< .def_303 1))) (let ((.def_305 (not .def_304))) (let ((.def_306 (< .def_46 1))) (let ((.def_307 (not .def_306))) (let ((.def_308 (or .def_307 .def_305))) (let ((.def_309 (not .def_308))) (let ((.def_310 (or A7 A2))) (let ((.def_311 (not .def_310))) (let ((.def_312 (and .def_311 .def_309))) (let ((.def_313 (not .def_312))) (let ((.def_314 (= .def_4 A8))) (let ((.def_315 (+ .def_122 .def_72))) (let ((.def_316 (< .def_315 1))) (let ((.def_317 (not .def_316))) (let ((.def_318 (and .def_317 .def_38))) (let ((.def_319 (not .def_318))) (let ((.def_320 (or .def_319 .def_314))) (let ((.def_321 (not .def_320))) (let ((.def_322 (and .def_321 .def_313))) (let ((.def_323 (< .def_18 (- 1)))) (let ((.def_324 (or A6 .def_323))) (let ((.def_325 (not .def_324))) (let ((.def_326 (or A2 A0))) (let ((.def_327 (or .def_326 .def_325))) (let ((.def_328 (or .def_123 A9))) (let ((.def_329 (and A4 .def_136))) (let ((.def_330 (not .def_329))) (let ((.def_331 (and .def_330 .def_328))) (let ((.def_332 (or .def_331 .def_327))) (let ((.def_333 (not .def_332))) (let ((.def_334 (and .def_333 .def_322))) (let ((.def_335 (or .def_334 .def_302))) (let ((.def_336 (or .def_335 .def_256))) (let ((.def_337 (not .def_336))) (let ((.def_338 (and .def_337 .def_175))) (let ((.def_339 (or .def_38 A0))) (let ((.def_340 (< .def_87 1))) (let ((.def_341 (< .def_64 1))) (let ((.def_342 (not .def_341))) (let ((.def_343 (or .def_342 .def_340))) (let ((.def_344 (and .def_343 .def_339))) (let ((.def_345 (and .def_341 .def_0))) (let ((.def_346 (not A5))) (let ((.def_347 (or .def_346 A1))) (let ((.def_348 (not .def_347))) (let ((.def_349 (or .def_348 .def_345))) (let ((.def_350 (not .def_349))) (let ((.def_351 (or .def_350 .def_344))) (let ((.def_352 (= A2 A0))) (let ((.def_353 (not .def_352))) (let ((.def_354 (= .def_121 .def_99))) (let ((.def_355 (or .def_354 .def_353))) (let ((.def_356 (+ .def_54 .def_11))) (let ((.def_357 (< .def_356 1))) (let ((.def_358 (not .def_357))) (let ((.def_359 (< .def_315 (- 1)))) (let ((.def_360 (and .def_359 .def_358))) (let ((.def_361 (not .def_360))) (let ((.def_362 (+ .def_269 .def_31))) (let ((.def_363 (< .def_362 1))) (let ((.def_364 (= A0 .def_363))) (let ((.def_365 (not .def_364))) (let ((.def_366 (and .def_365 .def_361))) (let ((.def_367 (= .def_366 .def_355))) (let ((.def_368 (and .def_367 .def_351))) (let ((.def_369 (or A0 A1))) (let ((.def_370 (not .def_369))) (let ((.def_371 (+ .def_32 .def_61))) (let ((.def_372 (< .def_371 1))) (let ((.def_373 (and .def_372 .def_0))) (let ((.def_374 (not .def_373))) (let ((.def_375 (= .def_374 .def_370))) (let ((.def_376 (and .def_121 .def_346))) (let ((.def_377 (not .def_376))) (let ((.def_378 (< .def_3 (- 1)))) (let ((.def_379 (not .def_378))) (let ((.def_380 (or .def_379 A7))) (let ((.def_381 (or .def_380 .def_377))) (let ((.def_382 (or .def_381 .def_375))) (let ((.def_383 (+ .def_122 .def_3))) (let ((.def_384 (< .def_383 1))) (let ((.def_385 (not .def_384))) (let ((.def_386 (< .def_72 1))) (let ((.def_387 (not .def_386))) (let ((.def_388 (= .def_387 .def_385))) (let ((.def_389 (< .def_86 1))) (let ((.def_390 (not .def_389))) (let ((.def_391 (= .def_17 .def_390))) (let ((.def_392 (and .def_391 .def_388))) (let ((.def_393 (not .def_392))) (let ((.def_394 (< .def_49 (- 1)))) (let ((.def_395 (and A9 .def_394))) (let ((.def_396 (+ .def_25 .def_61))) (let ((.def_397 (< .def_396 (- 1)))) (let ((.def_398 (= .def_390 .def_397))) (let ((.def_399 (not .def_398))) (let ((.def_400 (and .def_399 .def_395))) (let ((.def_401 (or .def_400 .def_393))) (let ((.def_402 (not .def_401))) (let ((.def_403 (and .def_402 .def_382))) (let ((.def_404 (and .def_403 .def_368))) (let ((.def_405 (not .def_404))) (let ((.def_406 (+ .def_54 .def_49))) (let ((.def_407 (< .def_406 (- 1)))) (let ((.def_408 (or .def_38 .def_407))) (let ((.def_409 (< .def_86 (- 1)))) (let ((.def_410 (not .def_409))) (let ((.def_411 (or .def_150 .def_410))) (let ((.def_412 (and .def_411 .def_408))) (let ((.def_413 (not .def_412))) (let ((.def_414 (or A4 .def_1))) (let ((.def_415 (or A8 A6))) (let ((.def_416 (or .def_415 .def_414))) (let ((.def_417 (= .def_416 .def_413))) (let ((.def_418 (+ .def_106 .def_54))) (let ((.def_419 (< .def_418 (- 1)))) (let ((.def_420 (or .def_386 .def_419))) (let ((.def_421 (not .def_420))) (let ((.def_422 (+ .def_106 .def_86))) (let ((.def_423 (< .def_422 1))) (let ((.def_424 (not .def_423))) (let ((.def_425 (+ .def_86 .def_11))) (let ((.def_426 (< .def_425 1))) (let ((.def_427 (or .def_426 .def_424))) (let ((.def_428 (or .def_427 .def_421))) (let ((.def_429 (not .def_428))) (let ((.def_430 (< .def_287 (- 1)))) (let ((.def_431 (not .def_430))) (let ((.def_432 (and A9 .def_431))) (let ((.def_433 (not .def_145))) (let ((.def_434 (and .def_55 .def_433))) (let ((.def_435 (not .def_434))) (let ((.def_436 (or .def_435 .def_432))) (let ((.def_437 (or .def_436 .def_429))) (let ((.def_438 (and .def_437 .def_417))) (let ((.def_439 (< .def_11 1))) (let ((.def_440 (not .def_439))) (let ((.def_441 (or A1 .def_440))) (let ((.def_442 (< .def_287 1))) (let ((.def_443 (< .def_61 (- 1)))) (let ((.def_444 (not .def_443))) (let ((.def_445 (and .def_444 .def_442))) (let ((.def_446 (= .def_445 .def_441))) (let ((.def_447 (not .def_446))) (let ((.def_448 (+ .def_18 .def_72))) (let ((.def_449 (< .def_448 (- 1)))) (let ((.def_450 (not A1))) (let ((.def_451 (or .def_450 .def_449))) (let ((.def_452 (not .def_451))) (let ((.def_453 (or .def_191 A2))) (let ((.def_454 (not .def_453))) (let ((.def_455 (or .def_454 .def_452))) (let ((.def_456 (not .def_455))) (let ((.def_457 (and .def_456 .def_447))) (let ((.def_458 (not .def_457))) (let ((.def_459 (or A2 A2))) (let ((.def_460 (not .def_459))) (let ((.def_461 (+ .def_25 .def_10))) (let ((.def_462 (< .def_461 1))) (let ((.def_463 (= .def_99 .def_462))) (let ((.def_464 (or .def_463 .def_460))) (let ((.def_465 (not .def_464))) (let ((.def_466 (+ .def_18 .def_46))) (let ((.def_467 (< .def_466 1))) (let ((.def_468 (+ .def_31 .def_61))) (let ((.def_469 (< .def_468 1))) (let ((.def_470 (= .def_469 .def_467))) (let ((.def_471 (and A1 .def_0))) (let ((.def_472 (not .def_471))) (let ((.def_473 (= .def_472 .def_470))) (let ((.def_474 (not .def_473))) (let ((.def_475 (or .def_474 .def_465))) (let ((.def_476 (or .def_475 .def_458))) (let ((.def_477 (and .def_476 .def_438))) (let ((.def_478 (not .def_477))) (let ((.def_479 (and .def_478 .def_405))) (let ((.def_480 (not .def_479))) (let ((.def_481 (+ .def_49 .def_46))) (let ((.def_482 (< .def_481 (- 1)))) (let ((.def_483 (or .def_99 .def_482))) (let ((.def_484 (not .def_128))) (let ((.def_485 (or .def_484 .def_17))) (let ((.def_486 (not .def_485))) (let ((.def_487 (and .def_486 .def_483))) (let ((.def_488 (not .def_442))) (let ((.def_489 (or .def_99 .def_488))) (let ((.def_490 (not .def_489))) (let ((.def_491 (not .def_136))) (let ((.def_492 (or A7 .def_491))) (let ((.def_493 (not .def_492))) (let ((.def_494 (or .def_493 .def_490))) (let ((.def_495 (or .def_494 .def_487))) (let ((.def_496 (not .def_495))) (let ((.def_497 (and .def_121 .def_1))) (let ((.def_498 (+ .def_64 .def_72))) (let ((.def_499 (< .def_498 1))) (let ((.def_500 (not .def_499))) (let ((.def_501 (and .def_500 .def_26))) (let ((.def_502 (not .def_501))) (let ((.def_503 (and .def_502 .def_497))) (let ((.def_504 (+ .def_61 .def_87))) (let ((.def_505 (< .def_504 (- 1)))) (let ((.def_506 (or A5 .def_505))) (let ((.def_507 (not .def_506))) (let ((.def_508 (+ .def_49 .def_10))) (let ((.def_509 (< .def_508 1))) (let ((.def_510 (or .def_509 .def_257))) (let ((.def_511 (not .def_510))) (let ((.def_512 (or .def_511 .def_507))) (let ((.def_513 (and .def_512 .def_503))) (let ((.def_514 (and .def_513 .def_496))) (let ((.def_515 (not .def_514))) (let ((.def_516 (+ .def_287 .def_10))) (let ((.def_517 (< .def_516 (- 1)))) (let ((.def_518 (and .def_121 .def_517))) (let ((.def_519 (not .def_518))) (let ((.def_520 (+ .def_76 .def_25))) (let ((.def_521 (< .def_520 1))) (let ((.def_522 (+ .def_10 .def_32))) (let ((.def_523 (< .def_522 1))) (let ((.def_524 (and .def_523 .def_521))) (let ((.def_525 (and .def_524 .def_519))) (let ((.def_526 (and .def_387 .def_99))) (let ((.def_527 (and .def_390 .def_38))) (let ((.def_528 (or .def_527 .def_526))) (let ((.def_529 (not .def_528))) (let ((.def_530 (and .def_529 .def_525))) (let ((.def_531 (not .def_530))) (let ((.def_532 (+ .def_3 .def_106))) (let ((.def_533 (< .def_532 (- 1)))) (let ((.def_534 (not .def_533))) (let ((.def_535 (and .def_244 .def_534))) (let ((.def_536 (not .def_535))) (let ((.def_537 (or .def_38 .def_123))) (let ((.def_538 (or .def_537 .def_536))) (let ((.def_539 (not .def_538))) (let ((.def_540 (= A6 A9))) (let ((.def_541 (and .def_38 A0))) (let ((.def_542 (not .def_541))) (let ((.def_543 (and .def_542 .def_540))) (let ((.def_544 (not .def_543))) (let ((.def_545 (and .def_544 .def_539))) (let ((.def_546 (and .def_545 .def_531))) (let ((.def_547 (not .def_546))) (let ((.def_548 (and .def_547 .def_515))) (let ((.def_549 (not .def_548))) (let ((.def_550 (and .def_484 .def_346))) (let ((.def_551 (and .def_38 .def_9))) (let ((.def_552 (not .def_551))) (let ((.def_553 (or .def_552 .def_550))) (let ((.def_554 (not .def_553))) (let ((.def_555 (and .def_307 .def_0))) (let ((.def_556 (or .def_346 .def_121))) (let ((.def_557 (or .def_556 .def_555))) (let ((.def_558 (= .def_557 .def_554))) (let ((.def_559 (not .def_150))) (let ((.def_560 (= .def_450 .def_559))) (let ((.def_561 (not .def_560))) (let ((.def_562 (+ .def_31 .def_64))) (let ((.def_563 (< .def_562 (- 1)))) (let ((.def_564 (and .def_563 .def_323))) (let ((.def_565 (and .def_564 .def_561))) (let ((.def_566 (or .def_390 A0))) (let ((.def_567 (+ .def_86 .def_61))) (let ((.def_568 (< .def_567 (- 1)))) (let ((.def_569 (and .def_568 A2))) (let ((.def_570 (and .def_569 .def_566))) (let ((.def_571 (or .def_570 .def_565))) (let ((.def_572 (or .def_571 .def_558))) (let ((.def_573 (< .def_504 1))) (let ((.def_574 (not .def_573))) (let ((.def_575 (= .def_574 .def_38))) (let ((.def_576 (not .def_575))) (let ((.def_577 (or A7 A4))) (let ((.def_578 (not .def_577))) (let ((.def_579 (and .def_578 .def_576))) (let ((.def_580 (not .def_579))) (let ((.def_581 (and A5 A6))) (let ((.def_582 (< .def_562 1))) (let ((.def_583 (or A3 .def_582))) (let ((.def_584 (not .def_583))) (let ((.def_585 (and .def_584 .def_581))) (let ((.def_586 (not .def_585))) (let ((.def_587 (and .def_586 .def_580))) (let ((.def_588 (not .def_587))) (let ((.def_589 (< .def_76 1))) (let ((.def_590 (+ .def_18 .def_64))) (let ((.def_591 (< .def_590 (- 1)))) (let ((.def_592 (not .def_591))) (let ((.def_593 (or .def_592 .def_589))) (let ((.def_594 (not .def_593))) (let ((.def_595 (and .def_340 A5))) (let ((.def_596 (not .def_595))) (let ((.def_597 (and .def_596 .def_594))) (let ((.def_598 (not .def_597))) (let ((.def_599 (or A5 A4))) (let ((.def_600 (+ .def_54 .def_269))) (let ((.def_601 (< .def_600 (- 1)))) (let ((.def_602 (or .def_9 .def_601))) (let ((.def_603 (or .def_602 .def_599))) (let ((.def_604 (not .def_603))) (let ((.def_605 (and .def_604 .def_598))) (let ((.def_606 (and .def_605 .def_588))) (let ((.def_607 (and .def_606 .def_572))) (let ((.def_608 (not .def_607))) (let ((.def_609 (and .def_608 .def_549))) (let ((.def_610 (not .def_609))) (let ((.def_611 (= .def_610 .def_480))) (let ((.def_612 (and .def_611 .def_338))) (let ((.def_613 (not .def_612))) (let ((.def_614 (<= x9 1))) (let ((.def_615 (<= 0 x9))) (let ((.def_616 (<= x8 1))) (let ((.def_617 (<= 0 x8))) (let ((.def_618 (<= x7 1))) (let ((.def_619 (<= 0 x7))) (let ((.def_620 (<= x6 1))) (let ((.def_621 (<= 0 x6))) (let ((.def_622 (<= x5 1))) (let ((.def_623 (<= 0 x5))) (let ((.def_624 (<= x4 1))) (let ((.def_625 (<= 0 x4))) (let ((.def_626 (<= x3 1))) (let ((.def_627 (<= 0 x3))) (let ((.def_628 (<= x2 1))) (let ((.def_629 (<= 0 x2))) (let ((.def_630 (<= x1 1))) (let ((.def_631 (<= 0 x1))) (let ((.def_632 (<= x0 1))) (let ((.def_633 (<= 0 x0))) (let ((.def_634 (and .def_633 .def_632 .def_631 .def_630 .def_629 .def_628 .def_627 .def_626 .def_625 .def_624 .def_623 .def_622 .def_621 .def_620 .def_619 .def_618 .def_617 .def_616 .def_615 .def_614 .def_613))) .def_634))))))))))))))))))))))))))))))))))))))))))))))))))))))))))))))))))))))))))))))))))))))))))))))))))))))))))))))))))))))))))))))))))))))))))))))))))))))))))))))))))))))))))))))))))))))))))))))))))))))))))))))))))))))))))))))))))))))))))))))))))))))))))))))))))))))))))))))))))))))))))))))))))))))))))))))))))))))))))))))))))))))))))))))))))))))))))))))))))))))))))))))))))))))))))))))))))))))))))))))))))))))))))))))))))))))))))))))))))))))))))))))))))))))))))))))))))))))))))))))))))))))))))))))))))))))))))))))))))))))))))))))))))))))))))))))))))))))))))))))))))))))))))))))))))))))))))))))))))))))))))))))))))))))))))))))))))))))))))))
(check-sat)
